
Gurobi 9.1.2 (win64) logging started Sun Dec  5 19:33:18 2021

Gurobi Optimizer version 9.1.2 build v9.1.2rc0 (win64)
Thread count: 8 physical cores, 8 logical processors, using up to 8 threads
Optimize a model with 1 rows, 156 columns and 155 nonzeros
Model fingerprint: 0x913f7144
Variable types: 1 continuous, 155 integer (155 binary)
Coefficient statistics:
  Matrix range     [1e+00, 1e+01]
  Objective range  [1e+00, 1e+00]
  Bounds range     [6e+01, 6e+01]
  RHS range        [1e+01, 1e+01]
Presolve time: 0.00s
Presolved: 1 rows, 156 columns, 155 nonzeros
Variable types: 1 continuous, 155 integer (155 binary)

Root simplex log...

Iteration    Objective       Primal Inf.    Dual Inf.      Time
       0   -6.4627481e+01   3.630918e-01   0.000000e+00     15s
       2   -6.4627481e+01   0.000000e+00   0.000000e+00     15s

Root relaxation: objective -6.462748e+01, 2 iterations, 0.00 seconds

    Nodes    |    Current Node    |     Objective Bounds      |     Work
 Expl Unexpl |  Obj  Depth IntInf | Incumbent    BestBd   Gap | It/Node Time

     0     0  -40.11286    0    2          -  -40.11286      -     -   14s
H    0     0                       0.8788995  -40.11286  4664%     -   16s
H    0     0                       0.8755215  -40.11286  4682%     -   19s
     0     0  -23.13282    0    7    0.87552  -23.13282  2742%     -   19s
H    0     0                       0.8755215  -23.13282  2742%     -   20s
     0     0  -22.07110    0   11    0.87552  -22.07110  2621%     -   21s
     0     0  -20.90693    0   11    0.87552  -20.90693  2488%     -   21s
     0     0  -19.79711    0   10    0.87552  -19.79711  2361%     -   21s
     0     0  -19.40024    0    9    0.87552  -19.40024  2316%     -   22s
     0     0  -19.38951    0    9    0.87552  -19.38951  2315%     -   22s
     0     0  -19.12230    0    9    0.87552  -19.12230  2284%     -   22s
     0     0  -18.88182    0   11    0.87552  -18.88182  2257%     -   22s
     0     2  -18.88182    0   11    0.87552  -18.88182  2257%     -   22s
   178    69   -7.15513   14    5    0.87552  -15.63000  1885%   4.2   25s
*  250    89              27       0.8436391  -11.63482  1479%   4.0   27s

Cutting planes:
  MIR: 9
  StrongCG: 1
  Lazy constraints: 110

Explored 726 nodes (2735 simplex iterations) in 38.64 seconds
Thread count was 8 (of 8 available processors)

Solution count 4: 0.843639 0.875521 0.875521 0.878899 

Optimal solution found (tolerance 1.00e-04)
Best objective 8.436391236033e-01, best bound 8.436391236033e-01, gap 0.0000%

User-callback calls 1708, time in user-callback 42.22 sec
